50
19919

871 557
922 287
212 203
811 870
680 298
842 502
590 433
239 17
138 582
317 525
983 55
626 963
890 530
143 852
448 385
177 427
463 204
57 368
645 905
668 562
556 870
775 887
581 942
819 79
385 552
890 990
888 361
113 130
460 84
288 372
167 650
865 742
981 469
423 89
275 367
373 197
616 635
217 36
312 851
256 70
877 269
77 219
885 100
382 805
91 939
99 631
371 5
150 538
10 413
442 400
